-462.0 4.0 5.0 10.0 3.0 1.0 7.0 7.0 10.0 5.0 7.0 5.0 0.0 9.0 9.0 4.0 2.0 9.0 5.0 9.0 5.0 7.0 8.0 1.0 4.0 0.0 9.0 6.0 7.0 10.0 10.0 6.0 8.0 1.0 1.0 5.0 2.0 3.0 6.0 9.0 8.0 8.0 6.0 9.0 3.0 6.0 1.0 10.0 10.0 9.0 6.0 2.0 2.0 8.0 3.0 7.0 7.0 4.0 3.0 10.0 1.0 10.0 7.0 4.0 1.0 6.0 8.0 2.0 9.0 7.0 6.0 6.0 10.0 7.0 4.0 3.0 3.0 10.0 7.0 10.0 
4.0 -403.0 7.0 10.0 5.0 7.0 3.0 2.0 9.0 5.0 9.0 10.0 10.0 8.0 10.0 2.0 8.0 4.0 8.0 4.0 9.0 1.0 3.0 8.0 8.0 9.0 10.0 1.0 4.0 3.0 8.0 2.0 3.0 10.0 7.0 1.0 4.0 7.0 5.0 7.0 5.0 3.0 7.0 3.0 8.0 2.0 9.0 9.0 4.0 10.0 6.0 1.0 10.0 3.0 7.0 6.0 10.0 1.0 10.0 7.0 8.0 1.0 6.0 9.0 1.0 1.0 7.0 1.0 6.0 7.0 0.0 0.0 0.0 0.0 0.0 0.0 0.0 0.0 0.0 0.0 
5.0 7.0 -426.0 4.0 10.0 6.0 6.0 9.0 9.0 9.0 7.0 1.0 5.0 2.0 3.0 2.0 8.0 5.0 10.0 1.0 9.0 4.0 10.0 9.0 3.0 6.0 6.0 2.0 4.0 10.0 8.0 8.0 4.0 4.0 1.0 2.0 8.0 5.0 4.0 5.0 7.0 1.0 6.0 1.0 0.0 3.0 8.0 7.0 9.0 0.0 2.0 9.0 10.0 4.0 4.0 9.0 5.0 4.0 2.0 3.0 0.0 4.0 5.0 10.0 2.0 9.0 3.0 10.0 3.0 1.0 4.0 4.0 6.0 3.0 9.0 3.0 10.0 9.0 6.0 10.0 
10.0 10.0 4.0 -422.0 1.0 7.0 9.0 2.0 10.0 6.0 4.0 1.0 10.0 7.0 1.0 2.0 9.0 8.0 3.0 1.0 0.0 8.0 7.0 10.0 10.0 3.0 9.0 7.0 8.0 9.0 8.0 0.0 9.0 5.0 0.0 10.0 8.0 4.0 3.0 3.0 8.0 3.0 3.0 7.0 1.0 9.0 9.0 4.0 7.0 4.0 10.0 5.0 9.0 0.0 7.0 8.0 1.0 3.0 3.0 1.0 10.0 0.0 1.0 3.0 5.0 7.0 6.0 1.0 10.0 1.0 2.0 6.0 10.0 2.0 10.0 6.0 8.0 1.0 1.0 4.0 
3.0 5.0 10.0 1.0 -414.0 7.0 1.0 6.0 5.0 6.0 6.0 9.0 0.0 9.0 10.0 8.0 6.0 9.0 10.0 2.0 7.0 3.0 8.0 5.0 4.0 5.0 9.0 0.0 2.0 0.0 9.0 1.0 2.0 5.0 9.0 2.0 7.0 0.0 5.0 1.0 8.0 7.0 0.0 3.0 1.0 9.0 3.0 10.0 9.0 4.0 8.0 9.0 8.0 1.0 7.0 2.0 8.0 6.0 10.0 3.0 4.0 5.0 0.0 4.0 0.0 0.0 3.0 2.0 4.0 3.0 6.0 5.0 10.0 10.0 9.0 6.0 7.0 8.0 7.0 8.0 
1.0 7.0 6.0 7.0 7.0 -396.0 8.0 10.0 2.0 2.0 2.0 1.0 2.0 1.0 7.0 9.0 1.0 10.0 6.0 9.0 9.0 1.0 5.0 8.0 9.0 0.0 2.0 6.0 2.0 6.0 6.0 0.0 3.0 6.0 1.0 9.0 6.0 5.0 9.0 3.0 3.0 0.0 1.0 5.0 3.0 10.0 1.0 8.0 7.0 7.0 1.0 10.0 6.0 7.0 4.0 1.0 9.0 2.0 1.0 4.0 4.0 3.0 3.0 10.0 0.0 9.0 9.0 0.0 10.0 7.0 10.0 6.0 6.0 0.0 1.0 5.0 3.0 10.0 10.0 6.0 
7.0 3.0 6.0 9.0 1.0 8.0 -380.0 5.0 7.0 8.0 10.0 8.0 2.0 5.0 8.0 1.0 8.0 10.0 6.0 2.0 8.0 3.0 4.0 5.0 7.0 3.0 9.0 4.0 9.0 10.0 8.0 9.0 8.0 3.0 4.0 6.0 1.0 0.0 10.0 6.0 0.0 6.0 10.0 4.0 0.0 1.0 1.0 4.0 0.0 1.0 0.0 0.0 0.0 1.0 10.0 6.0 10.0 8.0 1.0 3.0 6.0 9.0 1.0 5.0 1.0 0.0 1.0 2.0 2.0 5.0 4.0 4.0 6.0 7.0 5.0 6.0 9.0 3.0 1.0 6.0 
7.0 2.0 9.0 2.0 6.0 10.0 5.0 -403.0 8.0 7.0 7.0 9.0 5.0 6.0 10.0 4.0 6.0 10.0 2.0 6.0 10.0 8.0 5.0 8.0 0.0 3.0 4.0 3.0 10.0 2.0 5.0 4.0 7.0 3.0 7.0 7.0 7.0 4.0 6.0 4.0 5.0 6.0 0.0 5.0 10.0 5.0 8.0 10.0 2.0 0.0 5.0 0.0 6.0 10.0 4.0 1.0 1.0 3.0 2.0 9.0 2.0 4.0 0.0 6.0 0.0 5.0 5.0 5.0 1.0 9.0 6.0 8.0 2.0 7.0 4.0 4.0 4.0 4.0 0.0 7.0 
10.0 9.0 9.0 10.0 5.0 2.0 7.0 8.0 -411.0 0.0 3.0 2.0 9.0 8.0 3.0 8.0 6.0 2.0 5.0 2.0 0.0 8.0 0.0 2.0 3.0 1.0 3.0 0.0 10.0 4.0 7.0 5.0 1.0 9.0 0.0 7.0 9.0 5.0 9.0 3.0 3.0 6.0 9.0 7.0 0.0 7.0 7.0 9.0 0.0 0.0 4.0 9.0 5.0 2.0 4.0 4.0 7.0 5.0 4.0 1.0 9.0 0.0 5.0 6.0 7.0 1.0 10.0 2.0 4.0 3.0 9.0 10.0 0.0 10.0 6.0 6.0 10.0 10.0 7.0 9.0 
5.0 5.0 9.0 6.0 6.0 2.0 8.0 7.0 0.0 -412.0 6.0 7.0 10.0 4.0 0.0 4.0 6.0 7.0 9.0 1.0 2.0 6.0 2.0 9.0 5.0 9.0 0.0 1.0 9.0 6.0 5.0 1.0 3.0 5.0 1.0 3.0 10.0 4.0 4.0 3.0 7.0 7.0 4.0 5.0 0.0 6.0 7.0 9.0 9.0 3.0 5.0 5.0 0.0 9.0 1.0 0.0 3.0 1.0 6.0 10.0 10.0 6.0 4.0 5.0 10.0 9.0 6.0 4.0 5.0 5.0 9.0 10.0 9.0 0.0 1.0 8.0 7.0 7.0 0.0 10.0 
7.0 9.0 7.0 4.0 6.0 2.0 10.0 7.0 3.0 6.0 -407.0 0.0 5.0 0.0 9.0 8.0 6.0 1.0 2.0 5.0 10.0 4.0 0.0 3.0 6.0 8.0 10.0 0.0 3.0 4.0 4.0 7.0 0.0 3.0 4.0 5.0 0.0 2.0 7.0 9.0 6.0 1.0 0.0 10.0 3.0 9.0 6.0 7.0 4.0 5.0 3.0 0.0 3.0 2.0 8.0 7.0 1.0 9.0 10.0 10.0 3.0 9.0 8.0 6.0 8.0 9.0 0.0 1.0 5.0 4.0 4.0 3.0 4.0 4.0 9.0 9.0 4.0 10.0 7.0 10.0 
5.0 10.0 1.0 1.0 9.0 1.0 8.0 9.0 2.0 7.0 0.0 -360.0 9.0 1.0 9.0 1.0 5.0 10.0 7.0 5.0 1.0 5.0 8.0 1.0 8.0 7.0 3.0 10.0 2.0 8.0 5.0 6.0 6.0 2.0 7.0 3.0 6.0 7.0 3.0 4.0 1.0 5.0 6.0 3.0 2.0 10.0 2.0 9.0 3.0 1.0 9.0 7.0 2.0 5.0 3.0 4.0 0.0 2.0 4.0 7.0 3.0 3.0 10.0 4.0 7.0 1.0 1.0 7.0 0.0 4.0 3.0 0.0 1.0 9.0 2.0 8.0 5.0 2.0 2.0 1.0 
0.0 10.0 5.0 10.0 0.0 2.0 2.0 5.0 9.0 10.0 5.0 9.0 -438.0 10.0 5.0 3.0 5.0 3.0 5.0 9.0 0.0 7.0 5.0 9.0 10.0 2.0 7.0 2.0 7.0 9.0 6.0 10.0 7.0 8.0 0.0 6.0 7.0 6.0 6.0 7.0 6.0 6.0 5.0 4.0 1.0 6.0 9.0 10.0 2.0 5.0 5.0 6.0 8.0 3.0 3.0 0.0 8.0 4.0 10.0 6.0 10.0 4.0 3.0 4.0 7.0 4.0 9.0 4.0 5.0 9.0 4.0 4.0 0.0 6.0 3.0 4.0 7.0 0.0 8.0 8.0 
9.0 8.0 2.0 7.0 9.0 1.0 5.0 6.0 8.0 4.0 0.0 1.0 10.0 -413.0 8.0 1.0 1.0 9.0 6.0 5.0 7.0 8.0 5.0 0.0 10.0 7.0 3.0 5.0 7.0 3.0 10.0 6.0 8.0 8.0 3.0 1.0 3.0 5.0 9.0 10.0 7.0 8.0 5.0 3.0 7.0 5.0 9.0 9.0 4.0 2.0 10.0 7.0 1.0 1.0 0.0 4.0 10.0 0.0 9.0 10.0 6.0 3.0 9.0 3.0 2.0 3.0 10.0 1.0 1.0 3.0 0.0 10.0 9.0 1.0 2.0 2.0 5.0 5.0 0.0 9.0 
9.0 10.0 3.0 1.0 10.0 7.0 8.0 10.0 3.0 0.0 9.0 9.0 5.0 8.0 -382.0 8.0 5.0 9.0 2.0 1.0 6.0 4.0 4.0 3.0 0.0 4.0 2.0 5.0 7.0 1.0 7.0 7.0 8.0 10.0 1.0 8.0 5.0 8.0 3.0 0.0 3.0 3.0 5.0 1.0 1.0 6.0 1.0 5.0 4.0 9.0 1.0 3.0 4.0 4.0 9.0 10.0 3.0 0.0 0.0 0.0 7.0 4.0 3.0 7.0 5.0 6.0 2.0 2.0 3.0 4.0 8.0 8.0 8.0 7.0 2.0 5.0 2.0 8.0 8.0 1.0 
4.0 2.0 2.0 2.0 8.0 9.0 1.0 4.0 8.0 4.0 8.0 1.0 3.0 1.0 8.0 -374.0 10.0 2.0 10.0 7.0 10.0 4.0 0.0 8.0 6.0 6.0 5.0 1.0 5.0 0.0 7.0 8.0 7.0 6.0 3.0 2.0 1.0 0.0 7.0 0.0 1.0 1.0 8.0 9.0 9.0 6.0 4.0 0.0 9.0 2.0 2.0 2.0 2.0 7.0 9.0 2.0 2.0 10.0 1.0 5.0 9.0 5.0 10.0 0.0 0.0 3.0 8.0 9.0 0.0 6.0 3.0 6.0 5.0 0.0 9.0 2.0 10.0 9.0 2.0 7.0 
2.0 8.0 8.0 9.0 6.0 1.0 8.0 6.0 6.0 6.0 6.0 5.0 5.0 1.0 5.0 10.0 -382.0 4.0 0.0 2.0 2.0 6.0 0.0 4.0 6.0 8.0 5.0 1.0 2.0 8.0 2.0 0.0 10.0 7.0 1.0 8.0 4.0 6.0 5.0 4.0 7.0 7.0 5.0 9.0 5.0 2.0 5.0 9.0 6.0 1.0 9.0 8.0 8.0 8.0 5.0 0.0 3.0 1.0 1.0 0.0 1.0 8.0 6.0 0.0 1.0 5.0 6.0 2.0 4.0 0.0 3.0 10.0 7.0 4.0 3.0 8.0 4.0 8.0 6.0 10.0 
9.0 4.0 5.0 8.0 9.0 10.0 10.0 10.0 2.0 7.0 1.0 10.0 3.0 9.0 9.0 2.0 4.0 -422.0 9.0 10.0 9.0 0.0 2.0 5.0 8.0 2.0 9.0 6.0 6.0 9.0 5.0 7.0 2.0 3.0 2.0 5.0 0.0 2.0 2.0 10.0 9.0 8.0 4.0 3.0 9.0 1.0 3.0 9.0 2.0 5.0 8.0 3.0 9.0 6.0 3.0 6.0 2.0 4.0 4.0 9.0 6.0 4.0 7.0 8.0 10.0 8.0 4.0 7.0 1.0 5.0 8.0 0.0 4.0 1.0 4.0 1.0 1.0 3.0 2.0 6.0 
5.0 8.0 10.0 3.0 10.0 6.0 6.0 2.0 5.0 9.0 2.0 7.0 5.0 6.0 2.0 10.0 0.0 9.0 -425.0 2.0 0.0 3.0 1.0 1.0 9.0 10.0 4.0 6.0 8.0 6.0 5.0 7.0 4.0 4.0 8.0 7.0 8.0 7.0 6.0 8.0 10.0 3.0 2.0 9.0 7.0 0.0 6.0 1.0 9.0 9.0 8.0 1.0 8.0 8.0 1.0 8.0 1.0 1.0 4.0 1.0 2.0 5.0 7.0 3.0 6.0 7.0 8.0 6.0 7.0 7.0 1.0 10.0 6.0 8.0 0.0 3.0 9.0 3.0 7.0 4.0 
9.0 4.0 1.0 1.0 2.0 9.0 2.0 6.0 2.0 1.0 5.0 5.0 9.0 5.0 1.0 7.0 2.0 10.0 2.0 -384.0 6.0 5.0 3.0 5.0 1.0 5.0 10.0 9.0 4.0 1.0 3.0 2.0 0.0 3.0 4.0 9.0 10.0 6.0 5.0 6.0 1.0 9.0 9.0 10.0 2.0 4.0 7.0 5.0 8.0 10.0 1.0 6.0 6.0 5.0 10.0 3.0 9.0 0.0 10.0 8.0 1.0 7.0 6.0 3.0 7.0 2.0 1.0 4.0 9.0 3.0 0.0 0.0 6.0 8.0 2.0 3.0 7.0 1.0 8.0 3.0 
5.0 9.0 9.0 0.0 7.0 9.0 8.0 10.0 0.0 2.0 10.0 1.0 0.0 7.0 6.0 10.0 2.0 9.0 0.0 6.0 -430.0 10.0 10.0 7.0 3.0 5.0 5.0 10.0 8.0 2.0 6.0 4.0 0.0 8.0 4.0 3.0 0.0 3.0 10.0 1.0 8.0 1.0 8.0 5.0 9.0 7.0 2.0 4.0 4.0 0.0 9.0 8.0 8.0 10.0 3.0 3.0 1.0 2.0 0.0 4.0 9.0 3.0 6.0 1.0 10.0 6.0 10.0 7.0 2.0 0.0 8.0 9.0 6.0 6.0 4.0 6.0 5.0 8.0 9.0 10.0 
7.0 1.0 4.0 8.0 3.0 1.0 3.0 8.0 8.0 6.0 4.0 5.0 7.0 8.0 4.0 4.0 6.0 0.0 3.0 5.0 10.0 -402.0 7.0 1.0 5.0 7.0 10.0 9.0 6.0 0.0 9.0 0.0 7.0 6.0 0.0 0.0 9.0 10.0 10.0 6.0 0.0 7.0 8.0 8.0 4.0 1.0 4.0 6.0 9.0 9.0 5.0 9.0 5.0 10.0 1.0 6.0 2.0 0.0 3.0 3.0 10.0 9.0 0.0 7.0 8.0 5.0 0.0 2.0 7.0 8.0 4.0 3.0 0.0 5.0 6.0 6.0 1.0 3.0 3.0 8.0 
8.0 3.0 10.0 7.0 8.0 5.0 4.0 5.0 0.0 2.0 0.0 8.0 5.0 5.0 4.0 0.0 0.0 2.0 1.0 3.0 10.0 7.0 -358.0 5.0 10.0 8.0 10.0 3.0 8.0 6.0 3.0 8.0 0.0 1.0 10.0 10.0 3.0 0.0 4.0 5.0 6.0 0.0 9.0 3.0 3.0 5.0 0.0 7.0 5.0 9.0 6.0 0.0 0.0 7.0 1.0 2.0 7.0 4.0 8.0 6.0 3.0 2.0 9.0 4.0 7.0 8.0 1.0 8.0 4.0 3.0 7.0 4.0 2.0 0.0 4.0 7.0 1.0 2.0 0.0 3.0 
1.0 8.0 9.0 10.0 5.0 8.0 5.0 8.0 2.0 9.0 3.0 1.0 9.0 0.0 3.0 8.0 4.0 5.0 1.0 5.0 7.0 1.0 5.0 -380.0 1.0 3.0 1.0 1.0 6.0 2.0 5.0 3.0 7.0 5.0 8.0 7.0 9.0 4.0 0.0 9.0 8.0 2.0 4.0 7.0 8.0 5.0 9.0 3.0 8.0 6.0 0.0 9.0 3.0 3.0 8.0 4.0 10.0 4.0 4.0 0.0 0.0 1.0 0.0 2.0 8.0 2.0 7.0 5.0 10.0 8.0 7.0 0.0 3.0 8.0 6.0 1.0 6.0 0.0 10.0 3.0 
4.0 8.0 3.0 10.0 4.0 9.0 7.0 0.0 3.0 5.0 6.0 8.0 10.0 10.0 0.0 6.0 6.0 8.0 9.0 1.0 3.0 5.0 10.0 1.0 -378.0 5.0 1.0 4.0 6.0 3.0 0.0 6.0 6.0 2.0 9.0 1.0 0.0 4.0 0.0 8.0 9.0 4.0 4.0 2.0 9.0 2.0 7.0 3.0 8.0 6.0 5.0 2.0 5.0 4.0 5.0 1.0 6.0 10.0 5.0 2.0 0.0 10.0 4.0 2.0 3.0 10.0 7.0 7.0 2.0 8.0 7.0 7.0 5.0 5.0 1.0 0.0 1.0 4.0 1.0 4.0 
0.0 9.0 6.0 3.0 5.0 0.0 3.0 3.0 1.0 9.0 8.0 7.0 2.0 7.0 4.0 6.0 8.0 2.0 10.0 5.0 5.0 7.0 8.0 3.0 5.0 -425.0 7.0 8.0 5.0 2.0 2.0 7.0 6.0 3.0 4.0 8.0 8.0 4.0 9.0 1.0 3.0 0.0 8.0 10.0 7.0 7.0 9.0 2.0 9.0 10.0 10.0 8.0 6.0 1.0 3.0 5.0 10.0 9.0 7.0 7.0 4.0 9.0 7.0 5.0 0.0 9.0 0.0 4.0 6.0 10.0 6.0 3.0 0.0 7.0 8.0 6.0 3.0 4.0 3.0 0.0 
9.0 10.0 6.0 9.0 9.0 2.0 9.0 4.0 3.0 0.0 10.0 3.0 7.0 3.0 2.0 5.0 5.0 9.0 4.0 10.0 5.0 10.0 10.0 1.0 1.0 7.0 -442.0 4.0 7.0 9.0 10.0 5.0 6.0 0.0 1.0 9.0 6.0 0.0 9.0 1.0 10.0 7.0 9.0 8.0 8.0 0.0 7.0 7.0 10.0 8.0 0.0 3.0 0.0 6.0 10.0 1.0 8.0 9.0 6.0 3.0 7.0 5.0 8.0 10.0 0.0 6.0 3.0 3.0 5.0 2.0 7.0 5.0 1.0 8.0 9.0 0.0 6.0 8.0 3.0 6.0 
6.0 1.0 2.0 7.0 0.0 6.0 4.0 3.0 0.0 1.0 0.0 10.0 2.0 5.0 5.0 1.0 1.0 6.0 6.0 9.0 10.0 9.0 3.0 1.0 4.0 8.0 4.0 -391.0 8.0 4.0 6.0 8.0 7.0 4.0 2.0 3.0 0.0 10.0 3.0 3.0 9.0 5.0 3.0 3.0 4.0 3.0 3.0 10.0 3.0 9.0 4.0 7.0 2.0 2.0 10.0 8.0 4.0 8.0 9.0 10.0 6.0 0.0 4.0 10.0 0.0 6.0 4.0 5.0 8.0 0.0 0.0 2.0 7.0 10.0 5.0 10.0 9.0 3.0 4.0 10.0 
7.0 4.0 4.0 8.0 2.0 2.0 9.0 10.0 10.0 9.0 3.0 2.0 7.0 7.0 7.0 5.0 2.0 6.0 8.0 4.0 8.0 6.0 8.0 6.0 6.0 5.0 7.0 8.0 -418.0 4.0 9.0 3.0 6.0 1.0 2.0 7.0 6.0 0.0 6.0 4.0 10.0 3.0 7.0 9.0 0.0 0.0 5.0 8.0 1.0 7.0 8.0 6.0 10.0 10.0 0.0 10.0 6.0 8.0 5.0 6.0 1.0 5.0 0.0 5.0 6.0 1.0 9.0 5.0 5.0 0.0 5.0 0.0 7.0 10.0 0.0 2.0 3.0 8.0 6.0 3.0 
10.0 3.0 10.0 9.0 0.0 6.0 10.0 2.0 4.0 6.0 4.0 8.0 9.0 3.0 1.0 0.0 8.0 9.0 6.0 1.0 2.0 0.0 6.0 2.0 3.0 2.0 9.0 4.0 4.0 -405.0 9.0 6.0 3.0 10.0 9.0 3.0 3.0 0.0 7.0 6.0 10.0 2.0 1.0 9.0 4.0 4.0 10.0 0.0 0.0 8.0 7.0 8.0 5.0 4.0 6.0 9.0 8.0 8.0 3.0 4.0 5.0 3.0 9.0 7.0 9.0 10.0 1.0 4.0 1.0 8.0 5.0 6.0 3.0 2.0 3.0 2.0 2.0 8.0 3.0 7.0 
10.0 8.0 8.0 8.0 9.0 6.0 8.0 5.0 7.0 5.0 4.0 5.0 6.0 10.0 7.0 7.0 2.0 5.0 5.0 3.0 6.0 9.0 3.0 5.0 0.0 2.0 10.0 6.0 9.0 9.0 -453.0 3.0 0.0 9.0 7.0 2.0 8.0 9.0 5.0 1.0 9.0 0.0 8.0 5.0 8.0 0.0 1.0 2.0 5.0 4.0 1.0 10.0 7.0 9.0 8.0 7.0 7.0 2.0 4.0 9.0 8.0 9.0 7.0 5.0 7.0 5.0 6.0 1.0 9.0 5.0 0.0 6.0 0.0 8.0 7.0 6.0 4.0 10.0 5.0 8.0 
6.0 2.0 8.0 0.0 1.0 0.0 9.0 4.0 5.0 1.0 7.0 6.0 10.0 6.0 7.0 8.0 0.0 7.0 7.0 2.0 4.0 0.0 8.0 3.0 6.0 7.0 5.0 8.0 3.0 6.0 3.0 -384.0 0.0 1.0 3.0 9.0 9.0 7.0 6.0 2.0 7.0 1.0 1.0 10.0 9.0 5.0 6.0 3.0 2.0 3.0 5.0 9.0 10.0 4.0 5.0 1.0 9.0 2.0 3.0 0.0 8.0 9.0 1.0 5.0 0.0 10.0 0.0 5.0 0.0 4.0 0.0 10.0 9.0 3.0 10.0 3.0 6.0 6.0 6.0 8.0 
8.0 3.0 4.0 9.0 2.0 3.0 8.0 7.0 1.0 3.0 0.0 6.0 7.0 8.0 8.0 7.0 10.0 2.0 4.0 0.0 0.0 7.0 0.0 7.0 6.0 6.0 6.0 7.0 6.0 3.0 0.0 0.0 -399.0 2.0 10.0 6.0 3.0 1.0 2.0 3.0 10.0 9.0 7.0 9.0 5.0 7.0 2.0 2.0 6.0 3.0 1.0 6.0 8.0 7.0 3.0 7.0 4.0 7.0 2.0 3.0 8.0 7.0 9.0 7.0 3.0 0.0 0.0 8.0 4.0 6.0 10.0 3.0 10.0 4.0 2.0 8.0 5.0 10.0 4.0 8.0 
1.0 10.0 4.0 5.0 5.0 6.0 3.0 3.0 9.0 5.0 3.0 2.0 8.0 8.0 10.0 6.0 7.0 3.0 4.0 3.0 8.0 6.0 1.0 5.0 2.0 3.0 0.0 4.0 1.0 10.0 9.0 1.0 2.0 -395.0 5.0 8.0 4.0 0.0 3.0 10.0 8.0 3.0 4.0 0.0 5.0 3.0 8.0 3.0 0.0 1.0 5.0 0.0 2.0 3.0 10.0 7.0 6.0 0.0 3.0 3.0 4.0 10.0 2.0 2.0 8.0 8.0 4.0 7.0 10.0 9.0 7.0 5.0 7.0 10.0 5.0 9.0 5.0 5.0 10.0 7.0 
1.0 7.0 1.0 0.0 9.0 1.0 4.0 7.0 0.0 1.0 4.0 7.0 0.0 3.0 1.0 3.0 1.0 2.0 8.0 4.0 4.0 0.0 10.0 8.0 9.0 4.0 1.0 2.0 2.0 9.0 7.0 3.0 10.0 5.0 -352.0 1.0 2.0 9.0 6.0 5.0 0.0 5.0 8.0 5.0 3.0 9.0 9.0 2.0 5.0 1.0 0.0 9.0 8.0 5.0 10.0 6.0 1.0 0.0 4.0 8.0 6.0 2.0 4.0 7.0 7.0 1.0 5.0 3.0 3.0 10.0 2.0 0.0 10.0 7.0 9.0 0.0 1.0 5.0 3.0 8.0 
5.0 1.0 2.0 10.0 2.0 9.0 6.0 7.0 7.0 3.0 5.0 3.0 6.0 1.0 8.0 2.0 8.0 5.0 7.0 9.0 3.0 0.0 10.0 7.0 1.0 8.0 9.0 3.0 7.0 3.0 2.0 9.0 6.0 8.0 1.0 -384.0 5.0 7.0 10.0 6.0 5.0 4.0 4.0 8.0 8.0 2.0 0.0 4.0 0.0 5.0 4.0 4.0 1.0 2.0 3.0 3.0 0.0 3.0 3.0 7.0 6.0 10.0 4.0 2.0 1.0 10.0 6.0 2.0 0.0 0.0 8.0 8.0 6.0 6.0 5.0 3.0 5.0 8.0 3.0 10.0 
2.0 4.0 8.0 8.0 7.0 6.0 1.0 7.0 9.0 10.0 0.0 6.0 7.0 3.0 5.0 1.0 4.0 0.0 8.0 10.0 0.0 9.0 3.0 9.0 0.0 8.0 6.0 0.0 6.0 3.0 8.0 9.0 3.0 4.0 2.0 5.0 -397.0 8.0 4.0 2.0 7.0 8.0 5.0 4.0 8.0 7.0 10.0 6.0 1.0 1.0 2.0 10.0 5.0 10.0 1.0 4.0 8.0 8.0 6.0 9.0 2.0 4.0 1.0 2.0 4.0 2.0 10.0 1.0 2.0 0.0 5.0 10.0 9.0 2.0 9.0 0.0 3.0 4.0 8.0 4.0 
3.0 7.0 5.0 4.0 0.0 5.0 0.0 4.0 5.0 4.0 2.0 7.0 6.0 5.0 8.0 0.0 6.0 2.0 7.0 6.0 3.0 10.0 0.0 4.0 4.0 4.0 0.0 10.0 0.0 0.0 9.0 7.0 1.0 0.0 9.0 7.0 8.0 -351.0 1.0 8.0 2.0 6.0 8.0 5.0 3.0 5.0 1.0 6.0 3.0 1.0 5.0 0.0 5.0 2.0 9.0 9.0 8.0 1.0 1.0 2.0 10.0 7.0 10.0 2.0 7.0 1.0 9.0 1.0 7.0 0.0 8.0 3.0 10.0 4.0 0.0 3.0 4.0 2.0 10.0 0.0 
6.0 5.0 4.0 3.0 5.0 9.0 10.0 6.0 9.0 4.0 7.0 3.0 6.0 9.0 3.0 7.0 5.0 2.0 6.0 5.0 10.0 10.0 4.0 0.0 0.0 9.0 9.0 3.0 6.0 7.0 5.0 6.0 2.0 3.0 6.0 10.0 4.0 1.0 -427.0 9.0 3.0 6.0 3.0 9.0 7.0 1.0 9.0 3.0 4.0 1.0 1.0 6.0 0.0 7.0 7.0 1.0 9.0 0.0 9.0 6.0 5.0 1.0 8.0 8.0 4.0 8.0 5.0 2.0 10.0 10.0 9.0 10.0 10.0 4.0 3.0 2.0 8.0 2.0 3.0 5.0 
9.0 7.0 5.0 3.0 1.0 3.0 6.0 4.0 3.0 3.0 9.0 4.0 7.0 10.0 0.0 0.0 4.0 10.0 8.0 6.0 1.0 6.0 5.0 9.0 8.0 1.0 1.0 3.0 4.0 6.0 1.0 2.0 3.0 10.0 5.0 6.0 2.0 8.0 9.0 -399.0 6.0 10.0 1.0 3.0 1.0 0.0 3.0 7.0 7.0 8.0 10.0 9.0 3.0 2.0 10.0 2.0 9.0 8.0 3.0 8.0 8.0 2.0 8.0 0.0 0.0 5.0 3.0 5.0 3.0 0.0 9.0 9.0 0.0 7.0 3.0 5.0 9.0 7.0 7.0 7.0 
8.0 5.0 7.0 8.0 8.0 3.0 0.0 5.0 3.0 7.0 6.0 1.0 6.0 7.0 3.0 1.0 7.0 9.0 10.0 1.0 8.0 0.0 6.0 8.0 9.0 3.0 10.0 9.0 10.0 10.0 9.0 7.0 10.0 8.0 0.0 5.0 7.0 2.0 3.0 6.0 -440.0 2.0 10.0 1.0 3.0 10.0 9.0 9.0 1.0 5.0 5.0 10.0 1.0 7.0 10.0 9.0 2.0 2.0 5.0 3.0 4.0 6.0 2.0 0.0 4.0 1.0 0.0 7.0 4.0 10.0 9.0 7.0 2.0 9.0 2.0 4.0 10.0 4.0 9.0 7.0 
8.0 3.0 1.0 3.0 7.0 0.0 6.0 6.0 6.0 7.0 1.0 5.0 6.0 8.0 3.0 1.0 7.0 8.0 3.0 9.0 1.0 7.0 0.0 2.0 4.0 0.0 7.0 5.0 3.0 2.0 0.0 1.0 9.0 3.0 5.0 4.0 8.0 6.0 6.0 10.0 2.0 -409.0 3.0 0.0 10.0 8.0 4.0 10.0 7.0 5.0 7.0 0.0 10.0 10.0 1.0 4.0 0.0 9.0 3.0 10.0 9.0 3.0 5.0 9.0 7.0 6.0 7.0 8.0 3.0 6.0 10.0 8.0 0.0 5.0 4.0 7.0 1.0 10.0 10.0 7.0 
6.0 7.0 6.0 3.0 0.0 1.0 10.0 0.0 9.0 4.0 0.0 6.0 5.0 5.0 5.0 8.0 5.0 4.0 2.0 9.0 8.0 8.0 9.0 4.0 4.0 8.0 9.0 3.0 7.0 1.0 8.0 1.0 7.0 4.0 8.0 4.0 5.0 8.0 3.0 1.0 10.0 3.0 -405.0 5.0 9.0 4.0 4.0 5.0 3.0 6.0 3.0 10.0 0.0 0.0 5.0 9.0 4.0 2.0 6.0 3.0 1.0 3.0 3.0 5.0 3.0 5.0 4.0 3.0 9.0 10.0 7.0 6.0 5.0 10.0 3.0 10.0 6.0 5.0 7.0 4.0 
9.0 3.0 1.0 7.0 3.0 5.0 4.0 5.0 7.0 5.0 10.0 3.0 4.0 3.0 1.0 9.0 9.0 3.0 9.0 10.0 5.0 8.0 3.0 7.0 2.0 10.0 8.0 3.0 9.0 9.0 5.0 10.0 9.0 0.0 5.0 8.0 4.0 5.0 9.0 3.0 1.0 0.0 5.0 -452.0 9.0 8.0 0.0 8.0 6.0 9.0 9.0 6.0 9.0 0.0 6.0 7.0 4.0 8.0 6.0 1.0 8.0 9.0 9.0 7.0 2.0 9.0 9.0 3.0 2.0 5.0 4.0 5.0 8.0 4.0 10.0 2.0 6.0 7.0 5.0 4.0 
3.0 8.0 0.0 1.0 1.0 3.0 0.0 10.0 0.0 0.0 3.0 2.0 1.0 7.0 1.0 9.0 5.0 9.0 7.0 2.0 9.0 4.0 3.0 8.0 9.0 7.0 8.0 4.0 0.0 4.0 8.0 9.0 5.0 5.0 3.0 8.0 8.0 3.0 7.0 1.0 3.0 10.0 9.0 9.0 -368.0 0.0 2.0 10.0 10.0 9.0 3.0 4.0 5.0 7.0 8.0 3.0 3.0 7.0 1.0 0.0 2.0 0.0 0.0 9.0 10.0 0.0 1.0 4.0 4.0 5.0 3.0 3.0 5.0 7.0 4.0 6.0 7.0 0.0 8.0 2.0 
6.0 2.0 3.0 9.0 9.0 10.0 1.0 5.0 7.0 6.0 9.0 10.0 6.0 5.0 6.0 6.0 2.0 1.0 0.0 4.0 7.0 1.0 5.0 5.0 2.0 7.0 0.0 3.0 0.0 4.0 0.0 5.0 7.0 3.0 9.0 2.0 7.0 5.0 1.0 0.0 10.0 8.0 4.0 8.0 0.0 -396.0 5.0 5.0 3.0 9.0 2.0 9.0 8.0 9.0 8.0 5.0 10.0 5.0 9.0 8.0 10.0 4.0 2.0 0.0 5.0 8.0 0.0 2.0 1.0 2.0 8.0 3.0 5.0 7.0 8.0 6.0 10.0 9.0 1.0 0.0 
1.0 9.0 8.0 9.0 3.0 1.0 1.0 8.0 7.0 7.0 6.0 2.0 9.0 9.0 1.0 4.0 5.0 3.0 6.0 7.0 2.0 4.0 0.0 9.0 7.0 9.0 7.0 3.0 5.0 10.0 1.0 6.0 2.0 8.0 9.0 0.0 10.0 1.0 9.0 3.0 9.0 4.0 4.0 0.0 2.0 5.0 -392.0 1.0 8.0 1.0 4.0 10.0 6.0 3.0 5.0 8.0 5.0 10.0 8.0 9.0 5.0 0.0 6.0 2.0 6.0 3.0 0.0 3.0 4.0 7.0 0.0 0.0 10.0 6.0 9.0 8.0 1.0 3.0 0.0 6.0 
10.0 9.0 7.0 4.0 10.0 8.0 4.0 10.0 9.0 9.0 7.0 9.0 10.0 9.0 5.0 0.0 9.0 9.0 1.0 5.0 4.0 6.0 7.0 3.0 3.0 2.0 7.0 10.0 8.0 0.0 2.0 3.0 2.0 3.0 2.0 4.0 6.0 6.0 3.0 7.0 9.0 10.0 5.0 8.0 10.0 5.0 1.0 -474.0 9.0 10.0 2.0 10.0 9.0 7.0 1.0 0.0 0.0 5.0 10.0 9.0 5.0 8.0 7.0 6.0 1.0 10.0 6.0 0.0 9.0 5.0 7.0 8.0 9.0 2.0 1.0 10.0 5.0 6.0 10.0 7.0 
10.0 4.0 9.0 7.0 9.0 7.0 0.0 2.0 0.0 9.0 4.0 3.0 2.0 4.0 4.0 9.0 6.0 2.0 9.0 8.0 4.0 9.0 5.0 8.0 8.0 9.0 10.0 3.0 1.0 0.0 5.0 2.0 6.0 0.0 5.0 0.0 1.0 3.0 4.0 7.0 1.0 7.0 3.0 6.0 10.0 3.0 8.0 9.0 -413.0 2.0 10.0 7.0 8.0 2.0 8.0 9.0 10.0 1.0 1.0 6.0 7.0 1.0 7.0 1.0 1.0 7.0 0.0 5.0 1.0 7.0 8.0 3.0 7.0 10.0 8.0 10.0 4.0 6.0 5.0 6.0 
9.0 10.0 0.0 4.0 4.0 7.0 1.0 0.0 0.0 3.0 5.0 1.0 5.0 2.0 9.0 2.0 1.0 5.0 9.0 10.0 0.0 9.0 9.0 6.0 6.0 10.0 8.0 9.0 7.0 8.0 4.0 3.0 3.0 1.0 1.0 5.0 1.0 1.0 1.0 8.0 5.0 5.0 6.0 9.0 9.0 9.0 1.0 10.0 2.0 -380.0 9.0 7.0 5.0 2.0 4.0 7.0 6.0 7.0 1.0 6.0 2.0 9.0 0.0 8.0 0.0 5.0 8.0 2.0 3.0 0.0 8.0 4.0 4.0 6.0 6.0 2.0 2.0 7.0 0.0 7.0 
6.0 6.0 2.0 10.0 8.0 1.0 0.0 5.0 4.0 5.0 3.0 9.0 5.0 10.0 1.0 2.0 9.0 8.0 8.0 1.0 9.0 5.0 6.0 0.0 5.0 10.0 0.0 4.0 8.0 7.0 1.0 5.0 1.0 5.0 0.0 4.0 2.0 5.0 1.0 10.0 5.0 7.0 3.0 9.0 3.0 2.0 4.0 2.0 10.0 9.0 -405.0 1.0 5.0 8.0 9.0 3.0 7.0 8.0 10.0 5.0 2.0 7.0 5.0 0.0 6.0 10.0 6.0 8.0 5.0 3.0 2.0 8.0 2.0 8.0 7.0 2.0 3.0 10.0 1.0 9.0 
2.0 1.0 9.0 5.0 9.0 10.0 0.0 0.0 9.0 5.0 0.0 7.0 6.0 7.0 3.0 2.0 8.0 3.0 1.0 6.0 8.0 9.0 0.0 9.0 2.0 8.0 3.0 7.0 6.0 8.0 10.0 9.0 6.0 0.0 9.0 4.0 10.0 0.0 6.0 9.0 10.0 0.0 10.0 6.0 4.0 9.0 10.0 10.0 7.0 7.0 1.0 -419.0 4.0 10.0 0.0 10.0 5.0 1.0 3.0 5.0 0.0 0.0 2.0 5.0 3.0 10.0 8.0 6.0 9.0 9.0 4.0 3.0 1.0 4.0 8.0 2.0 4.0 1.0 2.0 10.0 
2.0 10.0 10.0 9.0 8.0 6.0 0.0 6.0 5.0 0.0 3.0 2.0 8.0 1.0 4.0 2.0 8.0 9.0 8.0 6.0 8.0 5.0 0.0 3.0 5.0 6.0 0.0 2.0 10.0 5.0 7.0 10.0 8.0 2.0 8.0 1.0 5.0 5.0 0.0 3.0 1.0 10.0 0.0 9.0 5.0 8.0 6.0 9.0 8.0 5.0 5.0 4.0 -408.0 8.0 4.0 7.0 0.0 3.0 9.0 0.0 2.0 8.0 5.0 2.0 1.0 2.0 10.0 5.0 6.0 5.0 9.0 9.0 9.0 4.0 8.0 3.0 8.0 6.0 2.0 3.0 
8.0 3.0 4.0 0.0 1.0 7.0 1.0 10.0 2.0 9.0 2.0 5.0 3.0 1.0 4.0 7.0 8.0 6.0 8.0 5.0 10.0 10.0 7.0 3.0 4.0 1.0 6.0 2.0 10.0 4.0 9.0 4.0 7.0 3.0 5.0 2.0 10.0 2.0 7.0 2.0 7.0 10.0 0.0 0.0 7.0 9.0 3.0 7.0 2.0 2.0 8.0 10.0 8.0 -425.0 4.0 9.0 9.0 3.0 8.0 6.0 2.0 1.0 7.0 10.0 1.0 0.0 9.0 3.0 9.0 8.0 6.0 1.0 9.0 7.0 7.0 8.0 6.0 2.0 8.0 7.0 
3.0 7.0 4.0 7.0 7.0 4.0 10.0 4.0 4.0 1.0 8.0 3.0 3.0 0.0 9.0 9.0 5.0 3.0 1.0 10.0 3.0 1.0 1.0 8.0 5.0 3.0 10.0 10.0 0.0 6.0 8.0 5.0 3.0 10.0 10.0 3.0 1.0 9.0 7.0 10.0 10.0 1.0 5.0 6.0 8.0 8.0 5.0 1.0 8.0 4.0 9.0 0.0 4.0 4.0 -441.0 0.0 1.0 3.0 10.0 3.0 8.0 4.0 10.0 4.0 9.0 5.0 10.0 10.0 5.0 10.0 2.0 2.0 6.0 3.0 9.0 8.0 9.0 2.0 10.0 10.0 
7.0 6.0 9.0 8.0 2.0 1.0 6.0 1.0 4.0 0.0 7.0 4.0 0.0 4.0 10.0 2.0 0.0 6.0 8.0 3.0 3.0 6.0 2.0 4.0 1.0 5.0 1.0 8.0 10.0 9.0 7.0 1.0 7.0 7.0 6.0 3.0 4.0 9.0 1.0 2.0 9.0 4.0 9.0 7.0 3.0 5.0 8.0 0.0 9.0 7.0 3.0 10.0 7.0 9.0 0.0 -377.0 3.0 3.0 0.0 1.0 10.0 4.0 9.0 6.0 0.0 2.0 5.0 5.0 4.0 5.0 5.0 1.0 7.0 3.0 2.0 9.0 4.0 8.0 7.0 0.0 
7.0 10.0 5.0 1.0 8.0 9.0 10.0 1.0 7.0 3.0 1.0 0.0 8.0 10.0 3.0 2.0 3.0 2.0 1.0 9.0 1.0 2.0 7.0 10.0 6.0 10.0 8.0 4.0 6.0 8.0 7.0 9.0 4.0 6.0 1.0 0.0 8.0 8.0 9.0 9.0 2.0 0.0 4.0 4.0 3.0 10.0 5.0 0.0 10.0 6.0 7.0 5.0 0.0 9.0 1.0 3.0 -402.0 4.0 5.0 3.0 2.0 8.0 5.0 3.0 2.0 7.0 4.0 8.0 3.0 10.0 10.0 7.0 4.0 2.0 0.0 2.0 6.0 4.0 3.0 8.0 
4.0 1.0 4.0 3.0 6.0 2.0 8.0 3.0 5.0 1.0 9.0 2.0 4.0 0.0 0.0 10.0 1.0 4.0 1.0 0.0 2.0 0.0 4.0 4.0 10.0 9.0 9.0 8.0 8.0 8.0 2.0 2.0 7.0 0.0 0.0 3.0 8.0 1.0 0.0 8.0 2.0 9.0 2.0 8.0 7.0 5.0 10.0 5.0 1.0 7.0 8.0 1.0 3.0 3.0 3.0 3.0 4.0 -352.0 2.0 0.0 0.0 6.0 1.0 6.0 3.0 9.0 6.0 9.0 3.0 7.0 7.0 8.0 3.0 10.0 8.0 5.0 2.0 0.0 8.0 7.0 
3.0 10.0 2.0 3.0 10.0 1.0 1.0 2.0 4.0 6.0 10.0 4.0 10.0 9.0 0.0 1.0 1.0 4.0 4.0 10.0 0.0 3.0 8.0 4.0 5.0 7.0 6.0 9.0 5.0 3.0 4.0 3.0 2.0 3.0 4.0 3.0 6.0 1.0 9.0 3.0 5.0 3.0 6.0 6.0 1.0 9.0 8.0 10.0 1.0 1.0 10.0 3.0 9.0 8.0 10.0 0.0 5.0 2.0 -394.0 9.0 10.0 5.0 5.0 9.0 1.0 0.0 0.0 9.0 2.0 3.0 2.0 9.0 10.0 4.0 9.0 1.0 10.0 6.0 2.0 8.0 
10.0 7.0 3.0 1.0 3.0 4.0 3.0 9.0 1.0 10.0 10.0 7.0 6.0 10.0 0.0 5.0 0.0 9.0 1.0 8.0 4.0 3.0 6.0 0.0 2.0 7.0 3.0 10.0 6.0 4.0 9.0 0.0 3.0 3.0 8.0 7.0 9.0 2.0 6.0 8.0 3.0 10.0 3.0 1.0 0.0 8.0 9.0 9.0 6.0 6.0 5.0 5.0 0.0 6.0 3.0 1.0 3.0 0.0 9.0 -402.0 5.0 8.0 9.0 10.0 5.0 0.0 2.0 4.0 3.0 10.0 2.0 8.0 7.0 4.0 4.0 10.0 1.0 10.0 6.0 0.0 
1.0 8.0 0.0 10.0 4.0 4.0 6.0 2.0 9.0 10.0 3.0 3.0 10.0 6.0 7.0 9.0 1.0 6.0 2.0 1.0 9.0 10.0 3.0 0.0 0.0 4.0 7.0 6.0 1.0 5.0 8.0 8.0 8.0 4.0 6.0 6.0 2.0 10.0 5.0 8.0 4.0 9.0 1.0 8.0 2.0 10.0 5.0 5.0 7.0 2.0 2.0 0.0 2.0 2.0 8.0 10.0 2.0 0.0 10.0 5.0 -425.0 4.0 7.0 7.0 8.0 0.0 10.0 9.0 9.0 2.0 4.0 5.0 9.0 3.0 8.0 5.0 0.0 10.0 9.0 10.0 
10.0 1.0 4.0 0.0 5.0 3.0 9.0 4.0 0.0 6.0 9.0 3.0 4.0 3.0 4.0 5.0 8.0 4.0 5.0 7.0 3.0 9.0 2.0 1.0 10.0 9.0 5.0 0.0 5.0 3.0 9.0 9.0 7.0 10.0 2.0 10.0 4.0 7.0 1.0 2.0 6.0 3.0 3.0 9.0 0.0 4.0 0.0 8.0 1.0 9.0 7.0 0.0 8.0 1.0 4.0 4.0 8.0 6.0 5.0 8.0 4.0 -377.0 3.0 9.0 7.0 2.0 1.0 8.0 0.0 2.0 1.0 10.0 2.0 1.0 7.0 5.0 10.0 5.0 1.0 3.0 
7.0 6.0 5.0 1.0 0.0 3.0 1.0 0.0 5.0 4.0 8.0 10.0 3.0 9.0 3.0 10.0 6.0 7.0 7.0 6.0 6.0 0.0 9.0 0.0 4.0 7.0 8.0 4.0 0.0 9.0 7.0 1.0 9.0 2.0 4.0 4.0 1.0 10.0 8.0 8.0 2.0 5.0 3.0 9.0 0.0 2.0 6.0 7.0 7.0 0.0 5.0 2.0 5.0 7.0 10.0 9.0 5.0 1.0 5.0 9.0 7.0 3.0 -399.0 4.0 5.0 10.0 0.0 8.0 9.0 1.0 5.0 3.0 10.0 1.0 9.0 3.0 6.0 10.0 3.0 1.0 
4.0 9.0 10.0 3.0 4.0 10.0 5.0 6.0 6.0 5.0 6.0 4.0 4.0 3.0 7.0 0.0 0.0 8.0 3.0 3.0 1.0 7.0 4.0 2.0 2.0 5.0 10.0 10.0 5.0 7.0 5.0 5.0 7.0 2.0 7.0 2.0 2.0 2.0 8.0 0.0 0.0 9.0 5.0 7.0 9.0 0.0 2.0 6.0 1.0 8.0 0.0 5.0 2.0 10.0 4.0 6.0 3.0 6.0 9.0 10.0 7.0 9.0 4.0 -425.0 5.0 0.0 8.0 5.0 8.0 9.0 9.0 7.0 7.0 5.0 8.0 7.0 10.0 8.0 6.0 8.0 
1.0 1.0 2.0 5.0 0.0 0.0 1.0 0.0 7.0 10.0 8.0 7.0 7.0 2.0 5.0 0.0 1.0 10.0 6.0 7.0 10.0 8.0 7.0 8.0 3.0 0.0 0.0 0.0 6.0 9.0 7.0 0.0 3.0 8.0 7.0 1.0 4.0 7.0 4.0 0.0 4.0 7.0 3.0 2.0 10.0 5.0 6.0 1.0 1.0 0.0 6.0 3.0 1.0 1.0 9.0 0.0 2.0 3.0 1.0 5.0 8.0 7.0 5.0 5.0 -342.0 8.0 1.0 8.0 8.0 3.0 6.0 4.0 1.0 1.0 6.0 3.0 7.0 6.0 3.0 10.0 
6.0 1.0 9.0 7.0 0.0 9.0 0.0 5.0 1.0 9.0 9.0 1.0 4.0 3.0 6.0 3.0 5.0 8.0 7.0 2.0 6.0 5.0 8.0 2.0 10.0 9.0 6.0 6.0 1.0 10.0 5.0 10.0 0.0 8.0 1.0 10.0 2.0 1.0 8.0 5.0 1.0 6.0 5.0 9.0 0.0 8.0 3.0 10.0 7.0 5.0 10.0 10.0 2.0 0.0 5.0 2.0 7.0 9.0 0.0 0.0 0.0 2.0 10.0 0.0 8.0 -392.0 4.0 7.0 0.0 8.0 7.0 0.0 4.0 1.0 7.0 10.0 1.0 6.0 4.0 6.0 
8.0 7.0 3.0 6.0 3.0 9.0 1.0 5.0 10.0 6.0 0.0 1.0 9.0 10.0 2.0 8.0 6.0 4.0 8.0 1.0 10.0 0.0 1.0 7.0 7.0 0.0 3.0 4.0 9.0 1.0 6.0 0.0 0.0 4.0 5.0 6.0 10.0 9.0 5.0 3.0 0.0 7.0 4.0 9.0 1.0 0.0 0.0 6.0 0.0 8.0 6.0 8.0 10.0 9.0 10.0 5.0 4.0 6.0 0.0 2.0 10.0 1.0 0.0 8.0 1.0 4.0 -388.0 2.0 0.0 3.0 5.0 10.0 1.0 2.0 10.0 4.0 8.0 10.0 8.0 9.0 
2.0 1.0 10.0 1.0 2.0 0.0 2.0 5.0 2.0 4.0 1.0 7.0 4.0 1.0 2.0 9.0 2.0 7.0 6.0 4.0 7.0 2.0 8.0 5.0 7.0 4.0 3.0 5.0 5.0 4.0 1.0 5.0 8.0 7.0 3.0 2.0 1.0 1.0 2.0 5.0 7.0 8.0 3.0 3.0 4.0 2.0 3.0 0.0 5.0 2.0 8.0 6.0 5.0 3.0 10.0 5.0 8.0 9.0 9.0 4.0 9.0 8.0 8.0 5.0 8.0 7.0 2.0 -381.0 8.0 3.0 9.0 3.0 10.0 9.0 10.0 9.0 2.0 0.0 5.0 5.0 
9.0 6.0 3.0 10.0 4.0 10.0 2.0 1.0 4.0 5.0 5.0 0.0 5.0 1.0 3.0 0.0 4.0 1.0 7.0 9.0 2.0 7.0 4.0 10.0 2.0 6.0 5.0 8.0 5.0 1.0 9.0 0.0 4.0 10.0 3.0 0.0 2.0 7.0 10.0 3.0 4.0 3.0 9.0 2.0 4.0 1.0 4.0 9.0 1.0 3.0 5.0 9.0 6.0 9.0 5.0 4.0 3.0 3.0 2.0 3.0 9.0 0.0 9.0 8.0 8.0 0.0 0.0 8.0 -389.0 0.0 10.0 7.0 5.0 7.0 3.0 2.0 9.0 9.0 10.0 9.0 
7.0 7.0 1.0 1.0 3.0 7.0 5.0 9.0 3.0 5.0 4.0 4.0 9.0 3.0 4.0 6.0 0.0 5.0 7.0 3.0 0.0 8.0 3.0 8.0 8.0 10.0 2.0 0.0 0.0 8.0 5.0 4.0 6.0 9.0 10.0 0.0 0.0 0.0 10.0 0.0 10.0 6.0 10.0 5.0 5.0 2.0 7.0 5.0 7.0 0.0 3.0 9.0 5.0 8.0 10.0 5.0 10.0 7.0 3.0 10.0 2.0 2.0 1.0 9.0 3.0 8.0 3.0 3.0 0.0 -412.0 8.0 8.0 1.0 5.0 8.0 6.0 9.0 8.0 8.0 9.0 
6.0 0.0 4.0 2.0 6.0 10.0 4.0 6.0 9.0 9.0 4.0 3.0 4.0 0.0 8.0 3.0 3.0 8.0 1.0 0.0 8.0 4.0 7.0 7.0 7.0 6.0 7.0 0.0 5.0 5.0 0.0 0.0 10.0 7.0 2.0 8.0 5.0 8.0 9.0 9.0 9.0 10.0 7.0 4.0 3.0 8.0 0.0 7.0 8.0 8.0 2.0 4.0 9.0 6.0 2.0 5.0 10.0 7.0 2.0 2.0 4.0 1.0 5.0 9.0 6.0 7.0 5.0 9.0 10.0 8.0 -418.0 5.0 10.0 5.0 0.0 5.0 0.0 1.0 7.0 4.0 
6.0 0.0 4.0 6.0 5.0 6.0 4.0 8.0 10.0 10.0 3.0 0.0 4.0 10.0 8.0 6.0 10.0 0.0 10.0 0.0 9.0 3.0 4.0 0.0 7.0 3.0 5.0 2.0 0.0 6.0 6.0 10.0 3.0 5.0 0.0 8.0 10.0 3.0 10.0 9.0 7.0 8.0 6.0 5.0 3.0 3.0 0.0 8.0 3.0 4.0 8.0 3.0 9.0 1.0 2.0 1.0 7.0 8.0 9.0 8.0 5.0 10.0 3.0 7.0 4.0 0.0 10.0 3.0 7.0 8.0 5.0 -420.0 4.0 8.0 0.0 2.0 3.0 9.0 6.0 10.0 
10.0 0.0 6.0 10.0 10.0 6.0 6.0 2.0 0.0 9.0 4.0 1.0 0.0 9.0 8.0 5.0 7.0 4.0 6.0 6.0 6.0 0.0 2.0 3.0 5.0 0.0 1.0 7.0 7.0 3.0 0.0 9.0 10.0 7.0 10.0 6.0 9.0 10.0 10.0 0.0 2.0 0.0 5.0 8.0 5.0 5.0 10.0 9.0 7.0 4.0 2.0 1.0 9.0 9.0 6.0 7.0 4.0 3.0 10.0 7.0 9.0 2.0 10.0 7.0 1.0 4.0 1.0 10.0 5.0 1.0 10.0 4.0 -430.0 5.0 3.0 5.0 9.0 9.0 5.0 3.0 
7.0 0.0 3.0 2.0 10.0 0.0 7.0 7.0 10.0 0.0 4.0 9.0 6.0 1.0 7.0 0.0 4.0 1.0 8.0 8.0 6.0 5.0 0.0 8.0 5.0 7.0 8.0 10.0 10.0 2.0 8.0 3.0 4.0 10.0 7.0 6.0 2.0 4.0 4.0 7.0 9.0 5.0 10.0 4.0 7.0 7.0 6.0 2.0 10.0 6.0 8.0 4.0 4.0 7.0 3.0 3.0 2.0 10.0 4.0 4.0 3.0 1.0 1.0 5.0 1.0 1.0 2.0 9.0 7.0 5.0 5.0 8.0 5.0 -415.0 6.0 6.0 3.0 10.0 3.0 9.0 
4.0 0.0 9.0 10.0 9.0 1.0 5.0 4.0 6.0 1.0 9.0 2.0 3.0 2.0 2.0 9.0 3.0 4.0 0.0 2.0 4.0 6.0 4.0 6.0 1.0 8.0 9.0 5.0 0.0 3.0 7.0 10.0 2.0 5.0 9.0 5.0 9.0 0.0 3.0 3.0 2.0 4.0 3.0 10.0 4.0 8.0 9.0 1.0 8.0 6.0 7.0 8.0 8.0 7.0 9.0 2.0 0.0 8.0 9.0 4.0 8.0 7.0 9.0 8.0 6.0 7.0 10.0 10.0 3.0 8.0 0.0 0.0 3.0 6.0 -411.0 1.0 5.0 9.0 5.0 5.0 
3.0 0.0 3.0 6.0 6.0 5.0 6.0 4.0 6.0 8.0 9.0 8.0 4.0 2.0 5.0 2.0 8.0 1.0 3.0 3.0 6.0 6.0 7.0 1.0 0.0 6.0 0.0 10.0 2.0 2.0 6.0 3.0 8.0 9.0 0.0 3.0 0.0 3.0 2.0 5.0 4.0 7.0 10.0 2.0 6.0 6.0 8.0 10.0 10.0 2.0 2.0 2.0 3.0 8.0 8.0 9.0 2.0 5.0 1.0 10.0 5.0 5.0 3.0 7.0 3.0 10.0 4.0 9.0 2.0 6.0 5.0 2.0 5.0 6.0 1.0 -383.0 3.0 5.0 8.0 8.0 
3.0 0.0 10.0 8.0 7.0 3.0 9.0 4.0 10.0 7.0 4.0 5.0 7.0 5.0 2.0 10.0 4.0 1.0 9.0 7.0 5.0 1.0 1.0 6.0 1.0 3.0 6.0 9.0 3.0 2.0 4.0 6.0 5.0 5.0 1.0 5.0 3.0 4.0 8.0 9.0 10.0 1.0 6.0 6.0 7.0 10.0 1.0 5.0 4.0 2.0 3.0 4.0 8.0 6.0 9.0 4.0 6.0 2.0 10.0 1.0 0.0 10.0 6.0 10.0 7.0 1.0 8.0 2.0 9.0 9.0 0.0 3.0 9.0 3.0 5.0 3.0 -401.0 3.0 4.0 2.0 
10.0 0.0 9.0 1.0 8.0 10.0 3.0 4.0 10.0 7.0 10.0 2.0 0.0 5.0 8.0 9.0 8.0 3.0 3.0 1.0 8.0 3.0 2.0 0.0 4.0 4.0 8.0 3.0 8.0 8.0 10.0 6.0 10.0 5.0 5.0 8.0 4.0 2.0 2.0 7.0 4.0 10.0 5.0 7.0 0.0 9.0 3.0 6.0 6.0 7.0 10.0 1.0 6.0 2.0 2.0 8.0 4.0 0.0 6.0 10.0 10.0 5.0 10.0 8.0 6.0 6.0 10.0 0.0 9.0 8.0 1.0 9.0 9.0 10.0 9.0 5.0 3.0 -446.0 2.0 2.0 
7.0 0.0 6.0 1.0 7.0 10.0 1.0 0.0 7.0 0.0 7.0 2.0 8.0 0.0 8.0 2.0 6.0 2.0 7.0 8.0 9.0 3.0 0.0 10.0 1.0 3.0 3.0 4.0 6.0 3.0 5.0 6.0 4.0 10.0 3.0 3.0 8.0 10.0 3.0 7.0 9.0 10.0 7.0 5.0 8.0 1.0 0.0 10.0 5.0 0.0 1.0 2.0 2.0 8.0 10.0 7.0 3.0 8.0 2.0 6.0 9.0 1.0 3.0 6.0 3.0 4.0 8.0 5.0 10.0 8.0 7.0 6.0 5.0 3.0 5.0 8.0 4.0 2.0 -393.0 2.0 
10.0 0.0 10.0 4.0 8.0 6.0 6.0 7.0 9.0 10.0 10.0 1.0 8.0 9.0 1.0 7.0 10.0 6.0 4.0 3.0 10.0 8.0 3.0 3.0 4.0 0.0 6.0 10.0 3.0 7.0 8.0 8.0 8.0 7.0 8.0 10.0 4.0 0.0 5.0 7.0 7.0 7.0 4.0 4.0 2.0 0.0 6.0 7.0 6.0 7.0 9.0 10.0 3.0 7.0 10.0 0.0 8.0 7.0 8.0 0.0 10.0 3.0 1.0 8.0 10.0 6.0 9.0 5.0 9.0 9.0 4.0 10.0 3.0 9.0 5.0 8.0 2.0 2.0 2.0 -475.0 

